#
# 2d Lennard-Jones gas
#

units lj
dimension 2
atom_style atomic
lattice hex 0.25
region mybox block 0 20 0 10 -0.5 0.5
create_box 1 mybox
region 2 block 0 10 0 10 -0.5 0.05
create_atoms 1 region 2
mass 1 1.0
velocity all create 0.5 87287
pair_style lj/cut 2.5
pair_coeff 1 1 1.0 1.0 2.5
neighbor 0.3 bin
neigh_modify every 20 delay 0 check no
fix 1 all nve
dump 1 all custom 10 gastwo.lammpstrj id type x y z vx vy vz
restart 2000 mydata.restart01 mydata.restart011
thermo 100
run 2000